NAME : cgl_72.7664.tour
COMMENT : Length = 7664
COMMENT : Found by LKH-3 [Keld Helsgaun] Thu Jun 26 21:26:49 2025
TYPE : TOUR
DIMENSION : 73
TOUR_SECTION
44
47
48
19
10
20
8
21
9
23
15
16
22
12
11
18
24
13
14
17
25
7
51
49
50
1
6
3
5
4
2
52
53
55
56
54
61
57
63
64
62
59
58
60
65
67
70
66
69
72
68
71
73
27
26
28
29
30
31
32
43
38
35
37
41
36
33
34
39
40
42
46
45
-1
EOF
